; pendulumXcrossover-right-arm-stretch
(set-info :status unknown)
(set-logic QF_AUFLIRA)
(declare-fun |HandLeft Norm| () Real)
(declare-fun |HandLeft Z| () Real)
(declare-fun |SpineMid Norm| () Real)
(declare-fun |SpineMid Z| () Real)
(declare-fun |SpineShoulder Norm| () Real)
(declare-fun |SpineShoulder Z| () Real)
(declare-fun |ShoulderLeft Norm| () Real)
(declare-fun |ShoulderLeft Z| () Real)
(declare-fun |ElbowLeft Norm| () Real)
(declare-fun |WristLeft Norm| () Real)
(declare-fun |ElbowRight Norm| () Real)
(declare-fun |ShoulderRight Norm| () Real)
(declare-fun |ShoulderRight Z| () Real)
(declare-fun |HandLeft Y| () Real)
(declare-fun |SpineMid Y| () Real)
(declare-fun |SpineShoulder Y| () Real)
(declare-fun |ShoulderLeft Y| () Real)
(declare-fun |ShoulderRight Y| () Real)
(declare-fun |HandLeft X| () Real)
(declare-fun |SpineMid X| () Real)
(declare-fun |SpineShoulder X| () Real)
(declare-fun |ShoulderLeft X| () Real)
(declare-fun |ShoulderRight X| () Real)
(declare-fun |ThumbRight Z| () Real)
(declare-fun |ThumbRight Y| () Real)
(declare-fun |ThumbRight X| () Real)
(assert
(let ((?x5357 (* |HandLeft Z| |HandLeft Norm|)))
(let ((?x159 (* |SpineMid Z| |SpineMid Norm|)))
(let ((?x435 (* |SpineShoulder Z| |SpineShoulder Norm|)))
(let ((?x420 (* |ShoulderLeft Z| |ShoulderLeft Norm|)))
(let ((?x7599 (* 0.0 |ElbowLeft Norm|)))
(let ((?x8655 (+ (+ (+ (+ (+ 0.0 ?x5357) (* 0.0 |WristLeft Norm|)) ?x7599) ?x420) ?x435)))
(let ((?x2109 (* 0.0 0.0)))
(let ((?x1304 (* 1.0 (~ 1.0))))
(let ((?x3066 (+ ?x1304 ?x2109)))
(let ((?x9240 (* ?x3066 |ElbowRight Norm|)))
(let ((?x7512 (+ (+ (+ (+ 0.0 ?x9240) (* |ShoulderRight Z| |ShoulderRight Norm|)) ?x435) ?x159)))
(let ((?x8542 (- (+ ?x7512 ?x9240) (+ (+ ?x8655 ?x159) ?x5357))))
(let ((?x1980 (ite (>= ?x8542 0.0) ?x8542 (- 0.0 ?x8542))))
(let ((?x5556 (* |HandLeft Y| |HandLeft Norm|)))
(let ((?x443 (* |SpineMid Y| |SpineMid Norm|)))
(let ((?x427 (* |SpineShoulder Y| |SpineShoulder Norm|)))
(let ((?x417 (* |ShoulderLeft Y| |ShoulderLeft Norm|)))
(let ((?x6432 (* (~ 1.0) |ElbowLeft Norm|)))
(let ((?x11038 (+ (+ (+ (+ (+ 0.0 ?x5556) (* (~ 1.0) |WristLeft Norm|)) ?x6432) ?x417) ?x427)))
(let ((?x2389 (* (~ 1.0) 0.0)))
(let ((?x3991 (* 0.0 (~ 1.0))))
(let ((?x11678 (+ ?x3991 ?x2389)))
(let ((?x4178 (* ?x11678 |ElbowRight Norm|)))
(let ((?x10192 (+ (+ (+ (+ 0.0 ?x4178) (* |ShoulderRight Y| |ShoulderRight Norm|)) ?x427) ?x443)))
(let ((?x9688 (- (+ ?x10192 ?x4178) (+ (+ ?x11038 ?x443) ?x5556))))
(let ((?x11513 (ite (>= ?x9688 0.0) ?x9688 (- 0.0 ?x9688))))
(let ((?x5403 (* |HandLeft X| |HandLeft Norm|)))
(let ((?x441 (* |SpineMid X| |SpineMid Norm|)))
(let ((?x426 (* |SpineShoulder X| |SpineShoulder Norm|)))
(let ((?x416 (* |ShoulderLeft X| |ShoulderLeft Norm|)))
(let ((?x9605 (+ (+ (+ (+ (+ 0.0 ?x5403) (* 0.0 |WristLeft Norm|)) ?x7599) ?x416) ?x426)))
(let ((?x5041 (* 0.0 |ElbowRight Norm|)))
(let ((?x6735 (+ (+ (+ (+ 0.0 ?x5041) (* |ShoulderRight X| |ShoulderRight Norm|)) ?x426) ?x441)))
(let ((?x7034 (+ ?x6735 ?x5041)))
(let ((?x142 (- ?x7034 (+ (+ ?x9605 ?x441) ?x5403))))
(let ((?x4411 (ite (>= ?x142 0.0) ?x142 (- 0.0 ?x142))))
(let ((?x331 (ite (>= ?x4411 ?x11513) ?x4411 ?x11513)))
(let (($x6883 (and true true)))
(let (($x9026 (and $x6883 true)))
(let (($x13771 (and $x9026 true)))
(let (($x9593 (and $x13771 true)))
(let (($x8461 (and $x9593 true)))
(let (($x4245 (and $x8461 true)))
(let (($x11197 (and $x4245 true)))
(let (($x8629 (and $x11197 true)))
(let (($x2034 (and $x8629 true)))
(let (($x10868 (and $x2034 true)))
(let ((?x9194 (- |ThumbRight Z| |ThumbRight Z|)))
(let ((?x8486 (- 0.0 ?x9194)))
(let (($x6679 (>= ?x9194 0.0)))
(let ((?x8796 (ite $x6679 ?x9194 ?x8486)))
(let ((?x7398 (- |ThumbRight Y| |ThumbRight Y|)))
(let ((?x2945 (- 0.0 ?x7398)))
(let (($x2946 (>= ?x7398 0.0)))
(let ((?x10061 (ite $x2946 ?x7398 ?x2945)))
(let ((?x9143 (- |ThumbRight X| |ThumbRight X|)))
(let ((?x8632 (- 0.0 ?x9143)))
(let (($x4961 (>= ?x9143 0.0)))
(let ((?x11066 (ite $x4961 ?x9143 ?x8632)))
(let (($x9863 (>= ?x11066 ?x10061)))
(let ((?x2010 (ite $x9863 ?x11066 ?x10061)))
(let (($x8858 (>= ?x2010 ?x8796)))
(let ((?x7351 (ite $x8858 ?x2010 ?x8796)))
(let (($x10727 (< ?x7351 15.0)))
(let (($x9765 (and $x10727)))
(and $x9765 $x10868 (and $x6883 (and true (< (ite (>= ?x331 ?x1980) ?x331 ?x1980) (/ 1.0 5.0)))))))))))))))))))))))))))))))))))))))))))))))))))))))))))))))))))))))
(check-sat)
